10	5
0	5	4	1	2	5	3
1	3	10	7	6
2	1	8
3	1	10
4	3	8	6	10
5	1	9
6	1	11
7	1	11
8	1	11
9	1	11
10	1	11
11	0
0	0	0	0	0	0	0
1	2	0	2	0	4	0
2	1	3	1	0	4	0
3	7	0	0	3	3	0
4	8	0	5	5	1	0
5	2	2	1	0	0	5
6	1	0	0	0	0	4
7	2	1	4	2	4	0
8	5	5	0	0	5	4
9	8	0	0	5	0	0
10	6	3	0	1	0	4
11	0	0	0	0	0	0
5	7	9	7	5
